p cnf 13 28
-13 -9 -1 0
-13 7 -6 0
13 7 6 0
-13 7 2 0
-13 -6 -2 0
-13 6 2 0
-13 -5 -3 0
-13 5 2 0
-12 -11 3 0
-12 9 3 0
12 8 -2 0
12 4 2 0
-12 -4 2 0
11 -10 5 0
-11 9 -3 0
11 9 -2 0
-11 9 2 0
-11 -7 5 0
11 7 -2 0
11 5 -4 0
-10 -9 -1 0
-10 -5 4 0
-9 -7 -3 0
-9 -4 3 0
-9 -4 2 0
8 7 -3 0
7 -4 -1 0
7 -2 -1 0
